128
1000
141
13
10
14
64
66
100
116
168
111
68
40
30
41
46
19
247
44
34
54
64
194
236
101
249
243
198
165
45
130
41
87
39
97
91
115
5
69
147
223
154
109
211
1
102
47
72
34
62
185
133
184
190
61
30
228
209
83
117
88
232
187
41
73
207
208
72
141
147
151
73
246
228
125
80
49
66
177
205
227
68
43
38
167
53
52
219
34
217
155
90
217
174
110
153
1
92
217
60
34
129
182
120
168
183
132
17
99
18
211
195
61
208
76
174
156
195
75
112
244
247
100
80
10
194
119
16
85
